
Gurobi 11.0.0 (win64, C++) logging started Wed Jul 30 00:37:01 2025

Set parameter TokenServer to value "141.76.38.119"
### START HEURISTIC APPROACH APPROACH ###
ProblemVariant: 1
### START PREPROCESSING ###
## Start start solution procedure ##
Start solution with 8 Vehicles and total costs 880.305 in 12.375 s.
### END PREPROCESSING ###
Route 0 0-22-20-0 : weight util 0.088889 | volume util 0.327689 | infeasible with packing heuristic | feasible with CP model
Route 1 0-4-1-5-2-0 : weight util 0.822222 | volume util 0.555689 | infeasible with packing heuristic | feasible with CP model
Route 2 0-29-27-28-26-0 : weight util 0.344444 | volume util 0.581244 | infeasible with packing heuristic | feasible with CP model
Route 3 0-15-13-7-16-0 : weight util 0.222222 | volume util 0.487956 | infeasible with packing heuristic | feasible with CP model
Route 4 0-3-6-24-25-19-0 : weight util 0.438889 | volume util 0.624778 | infeasible with packing heuristic | feasible with CP model
Route 5 0-18-0 : weight util 0.033333 | volume util 0.292667 | infeasible with packing heuristic | feasible with CP model
Route 6 0-21-14-8-10-0 : weight util 0.488889 | volume util 0.514044 | infeasible with packing heuristic | feasible with CP model
Route 7 0-23-9-17-12-11-0 : weight util 0.394444 | volume util 0.635689 | infeasible with packing heuristic | feasible with CP model
